(set-info :smt-lib-version 2.6)
(set-logic QF_UFLRA)
(set-info :source |
MathSat group

|)
(set-info :category "random")
(set-info :status sat)
(declare-fun x0 () Real)
(declare-fun x1 () Real)
(declare-fun x2 () Real)
(declare-fun x3 () Real)
(declare-fun x4 () Real)
(declare-fun x5 () Real)
(declare-fun x6 () Real)
(declare-fun x7 () Real)
(declare-fun x8 () Real)
(declare-fun x9 () Real)
(declare-fun x10 () Real)
(declare-fun x11 () Real)
(declare-fun x12 () Real)
(declare-fun x13 () Real)
(declare-fun x14 () Real)
(declare-fun x15 () Real)
(declare-fun x16 () Real)
(declare-fun x17 () Real)
(declare-fun x18 () Real)
(declare-fun x19 () Real)
(declare-fun x20 () Real)
(declare-fun x21 () Real)
(declare-fun x22 () Real)
(declare-fun x23 () Real)
(declare-fun x24 () Real)
(declare-fun x25 () Real)
(declare-fun x26 () Real)
(declare-fun x27 () Real)
(declare-fun x28 () Real)
(declare-fun x29 () Real)
(declare-fun f0_1 (Real) Real)
(declare-fun f0_2 (Real Real) Real)
(declare-fun f0_3 (Real Real Real) Real)
(declare-fun f0_4 (Real Real Real Real) Real)
(declare-fun P0 () Bool)
(declare-fun P1 () Bool)
(declare-fun P2 () Bool)
(declare-fun P3 () Bool)
(declare-fun P4 () Bool)
(declare-fun P5 () Bool)
(declare-fun P6 () Bool)
(declare-fun P7 () Bool)
(declare-fun P8 () Bool)
(declare-fun P9 () Bool)
(declare-fun P10 () Bool)
(declare-fun P11 () Bool)
(declare-fun P12 () Bool)
(declare-fun P13 () Bool)
(declare-fun P14 () Bool)
(declare-fun P15 () Bool)
(declare-fun P16 () Bool)
(declare-fun P17 () Bool)
(declare-fun P18 () Bool)
(declare-fun P19 () Bool)
(declare-fun P20 () Bool)
(declare-fun P21 () Bool)
(declare-fun P22 () Bool)
(declare-fun P23 () Bool)
(declare-fun P24 () Bool)
(declare-fun P25 () Bool)
(declare-fun P26 () Bool)
(declare-fun P27 () Bool)
(declare-fun P28 () Bool)
(declare-fun P29 () Bool)
(assert (let ((?v_24 (distinct (- (- (* 17 x22) (* 17 x25)) (* 15 x10)) 44)) (?v_100 (< (- (- (* 26 x2) (* 14 x20)) (* 22 x23)) 34)) (?v_65 (<= (- (+ (* 29 x24) (* 17 x12)) (* 5 x27)) 9)) (?v_39 (f0_1 x7)) (?v_93 (f0_1 x26))) (let ((?v_122 (distinct ?v_39 ?v_93)) (?v_82 (distinct (f0_1 x15) x25)) (?v_13 (distinct (f0_2 x4 x26) (f0_1 x2))) (?v_119 (= (f0_1 x13) (f0_2 x3 x3))) (?v_94 (f0_1 x19))) (let ((?v_135 (= ?v_94 (f0_2 x3 x19))) (?v_103 (= (f0_1 x1) ?v_93)) (?v_54 (distinct x15 (f0_1 x20))) (?v_79 (f0_1 x3))) (let ((?v_124 (= ?v_79 x9)) (?v_41 (distinct (f0_2 x19 x24) x9)) (?v_109 (= (f0_2 x20 x29) (f0_2 x26 x28))) (?v_98 (= x17 ?v_79)) (?v_34 (f0_1 x14))) (let ((?v_33 (= ?v_34 (f0_2 x3 x28))) (?v_26 (distinct (f0_2 x11 x15) x3)) (?v_112 (distinct x17 (f0_2 x13 x9))) (?v_126 (distinct x21 ?v_34)) (?v_59 (= (f0_1 x12) x5)) (?v_44 (distinct x21 (f0_2 x5 x8))) (?v_12 (distinct x0 (f0_2 x28 x11))) (?v_73 (distinct x14 x18)) (?v_1 (distinct x21 x7)) (?v_58 (f0_1 x0))) (let ((?v_67 (distinct ?v_58 x26)) (?v_125 (distinct ?v_94 (f0_2 x18 x13))) (?v_87 (distinct ?v_39 (f0_1 x28))) (?v_6 (distinct (f0_2 x20 x17) x26)) (?v_27 (distinct x22 (f0_2 x17 x10))) (?v_131 (distinct (f0_1 x5) x24)) (?v_23 (distinct ?v_39 (f0_2 x10 x2))) (?v_136 (= ?v_58 x6)) (?v_5 (= x2 (f0_2 x24 x7))) (?v_47 (distinct x4 (f0_2 x6 x9))) (?v_0 (not ?v_44))) (let ((?v_69 (not ?v_6)) (?v_4 (not ?v_131)) (?v_152 (not ?v_59)) (?v_15 (not ?v_103)) (?v_9 (not P22)) (?v_56 (not ?v_5)) (?v_78 (not ?v_67)) (?v_52 (not ?v_33)) (?v_21 (not ?v_54)) (?v_70 (not ?v_112)) (?v_17 (not P18)) (?v_43 (not ?v_135)) (?v_42 (not P8)) (?v_115 (not ?v_26)) (?v_49 (not ?v_13)) (?v_16 (not P23)) (?v_120 (not P15)) (?v_57 (not P20)) (?v_150 (not P12)) (?v_105 (not ?v_23)) (?v_28 (not ?v_24)) (?v_46 (not P28)) (?v_110 (not P6)) (?v_145 (not P25)) (?v_113 (not ?v_126)) (?v_63 (not ?v_82)) (?v_153 (not P19)) (?v_83 (not P27)) (?v_144 (not P2)) (?v_86 (not ?v_47)) (?v_84 (not P5)) (?v_61 (not P14)) (?v_154 (not P26)) (?v_81 (not ?v_73)) (?v_99 (not P17)) (?v_72 (not P16)) (?v_60 (not ?v_136)) (?v_143 (not P29)) (?v_114 (not ?v_65)) (?v_107 (not ?v_27)) (?v_88 (not P4)) (?v_129 (not ?v_41)) (?v_97 (not P7)) (?v_80 (not P11)) (?v_132 (not P24)) (?v_141 (not P13)) (?v_111 (not ?v_119)) (?v_137 (not P9)) (?v_102 (not P0)) (?v_104 (not ?v_122)) (?v_101 (not P1)) (?v_127 (not ?v_125)) (?v_134 (not P21)) (?v_151 (not P3)) (?v_123 (not P10)) (?v_139 (not ?v_87)) (?v_128 (not ?v_100)) (?v_148 (not ?v_1)) (?v_142 (not ?v_109)) (?v_147 (not ?v_124)) (?v_118 (<= (+ (* 10 x24) (* 39 x8) (* 14 x7)) 31))) (let ((?v_66 (not ?v_118)) (?v_51 (< (+ (* 8 x3) (* 41 x11) (* 5 x22)) 10))) (let ((?v_55 (not ?v_51)) (?v_95 (< (+ x2 (* 22 x16) (* 42 x22)) 7))) (let ((?v_140 (not ?v_95)) (?v_130 (<= (+ (- (* (- 9) x26) 0) (* 6 x12)) (- 44)))) (let ((?v_18 (not ?v_130)) (?v_89 (< (- (- (* (- 31) x7) (* 19 x9)) (* 13 x26)) 31))) (let ((?v_25 (not ?v_89)) (?v_3 (= (- (- (* 11 x7) x29) (* 31 x1)) (- 33))) (?v_22 (<= (+ (- 0 (* 16 x10)) (* 3 x18)) (- 27)))) (let ((?v_62 (not ?v_22)) (?v_37 (<= (+ (* (- 34) x12) (* 28 x29) (* 37 x9)) (- 34)))) (let ((?v_11 (not ?v_37)) (?v_2 (< (- (+ (* (- 37) x25) (* 26 x4)) 0) (- 38))) (?v_35 (<= (- (+ (* (- 8) x10) (* 22 x18)) (* 42 x15)) 17)) (?v_32 (distinct (- (- (* 24 x27) (* 11 x9)) (* 7 x21)) (- 14)))) (let ((?v_30 (not ?v_32)) (?v_40 (= (- (* 17 x24) (* 6 x23)) (- 36)))) (let ((?v_77 (not ?v_40)) (?v_8 (<= (- (+ (* (- 7) x16) (* 9 x12)) (* 22 x25)) (- 40))) (?v_14 (distinct (+ (* (- 32) x8) (* 31 x29) (* 33 x15)) 3)) (?v_10 (< (- (- (* (- 10) x16) (* 21 x27)) 0) 15)) (?v_7 (< (* (- 1) x27) 16))) (let ((?v_64 (not ?v_8)) (?v_36 (not ?v_10)) (?v_19 (= (- (- (* (- 20) x26) (* 6 x10)) 0) 34)) (?v_20 (distinct (- (+ (* (- 36) x15) (* 20 x21)) (* 25 x16)) (- 21))) (?v_76 (not ?v_3)) (?v_74 (<= (- (+ (* 19 x8) (* 22 x1)) (* 3 x13)) (- 16)))) (let ((?v_90 (not ?v_74)) (?v_38 (not ?v_19)) (?v_92 (not ?v_20)) (?v_31 (<= (- (- (* (- 19) x12) (* 10 x22)) (* 34 x19)) 4))) (let ((?v_75 (not ?v_31)) (?v_121 (< (+ (* (- 2) x2) (* 11 x15) (* 41 x20)) (- 32)))) (let ((?v_96 (or ?v_121 ?v_14)) (?v_29 (<= (+ (* (- 8) x13) (* 32 x19) (* 8 x24)) 33))) (let ((?v_138 (not ?v_29)) (?v_45 (< (- (+ (* 35 x11) (* 10 x11)) (* 29 x9)) (- 12)))) (let ((?v_48 (not ?v_45)) (?v_68 (distinct (+ (* 11 x28) (* 37 x20) (* 27 x17)) (- 34))) (?v_53 (not ?v_35)) (?v_116 (or ?v_37 ?v_153)) (?v_106 (<= (+ (- (* (- 37) x21) (* 30 x28)) (* 22 x28)) 5))) (let ((?v_50 (not ?v_106)) (?v_85 (< (- (+ (* 27 x9) (* 13 x10)) (* 6 x26)) (- 38)))) (let ((?v_108 (not ?v_85)) (?v_71 (< (+ (- (* 40 x0) (* 3 x14)) (* 9 x15)) (- 29))) (?v_91 (not ?v_68))) (let ((?v_117 (not ?v_71)) (?v_146 (not ?v_14)) (?v_149 (not ?v_2)) (?v_133 (not ?v_121))) (and (and (and (and (and (and (and (and (and (and (and (and (and (and (and (and (and (and (and (and (and (and (and (and (and (and (and (and (and (and (and (and (and (and (and (and (and (and (and (and (and (and (and (and (and (and (and (and (and (and (and (and (and (and (and (and (and (and (and (and (and (and (and (and (and (and (and (and (and (and (and (and (and (and (and (and (and (and (and (and (and (and (and (and (and (and (and (and (and (and (and (and (and (and (and (and (and (and (and (and (and (and (and (and (and (and (and (and (and (and (and (and (and (and (and (and (and (and (and (and (and (and (and (and (and (and (and (and (and (and (and (and (and (and (and (and (and (and (and (and (and (and (and (and (and (and (and (and (and (and (and (and (and (and (and (and (and (and (and (and (and (and (and (and (and (and (and (and (and (and (and (and (and (and (and (and (and (and (and (and (and (and (and (and (and (and (and (and (and (and (and (and (and (and (and (and (and (and (and (and (and (and (and (and (and (and (and (and (and (and (and (and (and (and (and (and (and (and (and (and (and (and (and (and (and (and (and (and (and (and (and (and (and (and (and (and (and (and (and (and (and (and (and (and (and (and (and (and (and (and (and (and (and (and (and (and (and (and (and (and (and (and (and (and (and (and (and (and (and (and (and (and (and (and (and (and (and (and (and (and (and (and (and (and (and (and (and (and (and (and (and (and (and (and (and (and (and (and (and (and (and (and (and (and (and (and (and (and (and (and (and (and (and (and (and (and (and (and (and (and (and (and (and (and (and (and (and (and (and (and (and (and (and (and (and (and (and (and (and (and (and (and (and (and (and (and (and (and (and (and (and (and (and (and (and (and (and (and (and (or (or ?v_0 ?v_69) ?v_18) (or (or ?v_65 ?v_25) ?v_4)) (or (or ?v_152 ?v_15) ?v_3)) (or (or ?v_62 ?v_9) ?v_11)) (or (or P22 ?v_56) ?v_2)) (or (or ?v_78 ?v_0) ?v_1)) (or (or ?v_1 ?v_2) ?v_3)) (or (or ?v_52 ?v_66) ?v_21)) (or (or ?v_1 P13) P7)) (or (or ?v_70 P24) ?v_41)) (or (or ?v_35 ?v_24) ?v_13)) (or (or ?v_30 ?v_77) P10)) (or (or ?v_8 ?v_14) ?v_17)) (or (or P18 ?v_10) ?v_43)) (or (or P28 ?v_4) P9)) (or (or ?v_5 ?v_42) ?v_6)) (or (or ?v_7 ?v_7) ?v_27)) (or (or ?v_64 ?v_9) (not ?v_12))) (or (or P9 P19) ?v_36)) (or (or ?v_19 ?v_115) ?v_11)) (or (or ?v_20 ?v_12) ?v_49)) (or (or ?v_16 ?v_14) ?v_15)) (or (or ?v_120 ?v_16) ?v_76)) (or (or ?v_90 ?v_17) ?v_57)) (or (or ?v_8 ?v_18) P6)) (or (or ?v_38 P26) ?v_5)) (or (or ?v_13 ?v_150) ?v_105)) (or (or ?v_92 ?v_75) ?v_21)) (or (or ?v_18 P9) ?v_22)) (or ?v_96 ?v_23)) (or (or ?v_23 ?v_28) ?v_46)) (or (or ?v_29 ?v_110) ?v_25)) (or (or ?v_26 ?v_27) P11)) (or (or ?v_18 ?v_28) P27)) (or (or ?v_145 ?v_138) ?v_30)) (or (or ?v_31 ?v_32) ?v_48)) (or (or ?v_33 ?v_68) ?v_113)) (or (or P29 P5) ?v_63)) (or (or ?v_53 ?v_28) ?v_36)) (or ?v_116 P22)) (or (or ?v_24 P19) ?v_50)) (or (or ?v_83 ?v_38) ?v_108)) (or (or P1 P29) ?v_87)) (or (or ?v_40 ?v_144) ?v_86)) (or (or ?v_124 ?v_55) ?v_41)) (or (or P5 P6) ?v_42)) (or (or ?v_43 P6) ?v_44)) (or (or ?v_2 P24) P7)) (or (or P22 ?v_84) ?v_61)) (or (or ?v_45 ?v_154) ?v_46)) (or (or ?v_0 ?v_26) ?v_100)) (or (or ?v_81 ?v_23) ?v_47)) (or (or ?v_48 ?v_49) ?v_71)) (or (or ?v_50 ?v_51) ?v_8)) (or (or ?v_99 ?v_52) P14)) (or (or ?v_45 P20) ?v_9)) (or (or ?v_53 P7) ?v_54)) (or (or ?v_49 ?v_55) ?v_47)) (or (or ?v_72 ?v_56) ?v_57)) (or (or P2 ?v_60) ?v_59)) (or (or ?v_43 ?v_51) ?v_60)) (or (or P3 ?v_61) ?v_62)) (or (or ?v_30 ?v_29) ?v_63)) (or (or ?v_143 ?v_31) ?v_64)) (or (or P12 P20) ?v_114)) (or (or ?v_66 P13) ?v_38)) (or (or ?v_67 ?v_91) ?v_42)) (or (or ?v_0 P2) P1)) (or (or ?v_15 ?v_14) ?v_27)) (or (or ?v_56 ?v_107) ?v_31)) (or (or ?v_69 P20) ?v_15)) (or (or ?v_14 ?v_70) ?v_71)) (or (or ?v_54 ?v_72) ?v_12)) (or (or ?v_15 ?v_88) ?v_95)) (or (or ?v_73 ?v_31) ?v_74)) (or (or ?v_129 ?v_64) ?v_97)) (or (or ?v_75 ?v_30) ?v_76)) (or (or ?v_23 ?v_70) P9)) (or (or ?v_4 ?v_77) ?v_78)) (or (or ?v_27 P10) ?v_80)) (or (or ?v_98 ?v_80) ?v_15)) (or (or ?v_132 (not ?v_7)) ?v_43)) (or (or ?v_141 ?v_19) ?v_81)) (or (or ?v_11 ?v_13) ?v_25)) (or (or ?v_82 ?v_83) ?v_84)) (or (or ?v_44 ?v_111) ?v_137)) (or (or ?v_77 ?v_85) ?v_117)) (or (or ?v_67 ?v_15) ?v_86)) (or (or ?v_5 ?v_65) ?v_102)) (or (or P27 ?v_87) ?v_47)) (or (or P16 ?v_88) ?v_89)) (or (or ?v_45 P12) ?v_3)) (or (or ?v_15 ?v_90) ?v_91)) (or (or P2 ?v_44) ?v_82)) (or (or ?v_5 P29) ?v_92)) (or (or ?v_48 ?v_104) ?v_78)) (or (or ?v_33 P1) ?v_0)) (or (or ?v_27 ?v_86) ?v_50)) (or (or P2 ?v_92) P20)) (or (or ?v_55 ?v_101) ?v_127)) (or (or ?v_68 ?v_71) ?v_140)) (or ?v_96 ?v_47)) (or (or ?v_97 ?v_32) ?v_98)) (or (or ?v_85 P2) ?v_99)) (or (or ?v_100 P19) ?v_44)) (or (or ?v_101 ?v_8) ?v_89)) (or (or P5 ?v_24) ?v_21)) (or (or ?v_80 ?v_90) P19)) (or (or P11 ?v_109) ?v_102)) (or (or ?v_92 ?v_103) ?v_72)) (or (or ?v_66 ?v_12) ?v_104)) (or (or ?v_75 ?v_75) ?v_105)) (or (or ?v_106 ?v_33) ?v_53)) (or (or ?v_78 ?v_84) ?v_107)) (or (or P16 ?v_108) ?v_106)) (or (or ?v_97 ?v_62) ?v_20)) (or (or ?v_28 ?v_134) ?v_151)) (or (or ?v_4 ?v_99) P12)) (or (or ?v_107 ?v_78) ?v_109)) (or (or ?v_66 ?v_110) ?v_51)) (or (or ?v_111 P23) ?v_103)) (or (or ?v_56 ?v_146) ?v_112)) (or (or ?v_77 ?v_123) ?v_74)) (or (or P27 ?v_40) ?v_66)) (or (or ?v_86 ?v_3) P9)) (or (or ?v_28 ?v_113) ?v_20)) (or (or P10 ?v_109) ?v_149)) (or (or ?v_48 ?v_114) ?v_21)) (or (or P2 ?v_115) ?v_109)) (or ?v_116 ?v_1)) (or (or ?v_80 ?v_117) ?v_0)) (or (or ?v_118 ?v_33) P21)) (or (or P1 ?v_71) ?v_110)) (or (or P18 ?v_105) ?v_119)) (or (or ?v_120 ?v_46) ?v_95)) (or (or P21 P24) ?v_133)) (or (or ?v_55 ?v_122) P0)) (or (or ?v_123 P16) ?v_83)) (or (or P0 ?v_124) ?v_125)) (or (or ?v_13 ?v_68) ?v_16)) (or (or ?v_56 ?v_12) ?v_126)) (or (or ?v_117 ?v_61) P11)) (or (or ?v_78 P11) ?v_119)) (or (or ?v_97 P14) ?v_82)) (or (or ?v_71 ?v_100) ?v_0)) (or (or ?v_3 ?v_139) ?v_66)) (or (or ?v_59 ?v_26) P18)) (or (or ?v_128 ?v_118) ?v_37)) (or (or ?v_89 ?v_110) P12)) (or (or ?v_63 ?v_73) ?v_127)) (or (or ?v_80 ?v_128) ?v_36)) (or (or ?v_6 ?v_5) ?v_108)) (or (or ?v_129 P3) ?v_11)) (or (or ?v_108 ?v_87) ?v_109)) (or (or ?v_28 P14) ?v_101)) (or (or ?v_123 ?v_130) ?v_131)) (or (or ?v_3 ?v_125) ?v_95)) (or (or P6 P15) ?v_148)) (or (or P26 ?v_76) ?v_9)) (or (or ?v_67 P28) ?v_32)) (or (or ?v_89 ?v_132) ?v_51)) (or (or ?v_89 ?v_63) ?v_24)) (or (or ?v_19 ?v_127) ?v_65)) (or (or P29 ?v_44) P21)) (or (or P0 ?v_101) ?v_87)) (or (or ?v_133 ?v_56) P27)) (or (or ?v_10 ?v_41) ?v_109)) (or (or ?v_37 ?v_98) ?v_27)) (or (or ?v_2 ?v_60) P18)) (or (or ?v_99 ?v_95) ?v_60)) (or (or ?v_118 ?v_73) ?v_86)) (or (or ?v_75 P12) ?v_130)) (or (or ?v_22 ?v_48) ?v_134)) (or (or ?v_126 ?v_76) ?v_31)) (or (or ?v_3 P3) ?v_75)) (or (or ?v_73 ?v_0) P18)) (or (or ?v_33 ?v_73) ?v_46)) (or (or ?v_135 ?v_133) ?v_1)) (or (or ?v_54 ?v_91) ?v_100)) (or (or ?v_56 ?v_128) P11)) (or (or ?v_61 ?v_118) ?v_12)) (or (or ?v_80 ?v_72) ?v_35)) (or (or ?v_73 ?v_133) ?v_85)) (or (or ?v_0 ?v_80) P7)) (or (or ?v_10 ?v_14) ?v_114)) (or (or ?v_73 ?v_55) P3)) (or (or ?v_136 ?v_55) ?v_59)) (or (or ?v_82 ?v_60) P22)) (or (or ?v_33 ?v_82) ?v_107)) (or (or ?v_137 ?v_104) ?v_138)) (or (or P29 P2) ?v_66)) (or (or ?v_81 ?v_52) ?v_14)) (or (or ?v_65 ?v_75) ?v_45)) (or (or ?v_52 ?v_131) ?v_6)) (or (or P9 ?v_133) ?v_127)) (or (or ?v_91 P28) ?v_105)) (or (or ?v_114 ?v_62) ?v_97)) (or (or ?v_119 ?v_9) ?v_134)) (or (or ?v_73 ?v_119) P29)) (or (or P0 ?v_70) ?v_81)) (or (or ?v_117 P26) ?v_126)) (or (or ?v_64 ?v_132) ?v_117)) (or (or ?v_60 ?v_78) ?v_68)) (or (or ?v_67 ?v_31) ?v_121)) (or (or ?v_78 ?v_139) ?v_51)) (or (or ?v_81 P20) ?v_91)) (or (or ?v_49 P3) ?v_112)) (or (or ?v_77 ?v_49) ?v_84)) (or (or ?v_104 P20) ?v_53)) (or (or ?v_82 ?v_26) ?v_131)) (or (or ?v_35 ?v_21) ?v_111)) (or (or ?v_76 ?v_134) ?v_49)) (or (or ?v_82 ?v_47) ?v_114)) (or (or ?v_64 ?v_1) ?v_92)) (or (or ?v_47 ?v_31) ?v_29)) (or (or ?v_28 ?v_21) ?v_42)) (or (or ?v_37 ?v_23) ?v_3)) (or (or ?v_51 ?v_63) ?v_89)) (or (or ?v_41 ?v_66) ?v_140)) (or (or P12 P10) ?v_27)) (or (or ?v_27 (not ?v_98)) ?v_63)) (or (or ?v_44 ?v_132) ?v_69)) (or (or ?v_66 ?v_134) P16)) (or (or ?v_0 ?v_38) P15)) (or (or P29 P27) ?v_48)) (or (or ?v_13 ?v_67) ?v_76)) (or (or ?v_38 P14) ?v_56)) (or (or ?v_26 ?v_80) ?v_99)) (or (or ?v_76 ?v_3) ?v_132)) (or (or ?v_8 ?v_10) P11)) (or (or ?v_9 P10) ?v_37)) (or (or ?v_81 ?v_31) ?v_12)) (or (or ?v_74 P20) ?v_121)) (or (or P22 ?v_36) P16)) (or (or ?v_134 ?v_65) ?v_112)) (or (or ?v_141 ?v_103) ?v_101)) (or (or ?v_118 ?v_7) ?v_112)) (or (or ?v_120 P6) ?v_48)) (or (or P25 P16) P3)) (or (or ?v_31 ?v_92) ?v_29)) (or (or ?v_138 ?v_17) ?v_132)) (or (or ?v_142 ?v_60) ?v_139)) (or (or ?v_41 ?v_136) ?v_95)) (or (or P14 ?v_73) P23)) (or (or ?v_25 ?v_100) ?v_19)) (or (or ?v_67 ?v_32) ?v_126)) (or (or P1 ?v_40) ?v_130)) (or (or P14 ?v_120) ?v_147)) (or (or ?v_35 ?v_142) ?v_143)) (or (or ?v_83 ?v_23) ?v_19)) (or (or P22 ?v_144) P20)) (or (or ?v_29 ?v_100) ?v_136)) (or (or ?v_70 P29) ?v_3)) (or (or ?v_20 P16) P22)) (or (or ?v_66 ?v_77) ?v_108)) (or (or P6 ?v_35) ?v_61)) (or (or ?v_135 ?v_27) ?v_143)) (or (or ?v_145 ?v_9) ?v_42)) (or (or ?v_24 P10) ?v_22)) (or (or ?v_37 ?v_142) ?v_111)) (or (or ?v_36 ?v_33) ?v_13)) (or (or ?v_63 ?v_135) P21)) (or (or P5 ?v_29) ?v_107)) (or (or ?v_91 ?v_30) ?v_132)) (or (or P11 ?v_53) ?v_146)) (or (or P3 ?v_36) ?v_68)) (or (or ?v_108 ?v_100) ?v_132)) (or (or P8 ?v_14) ?v_110)) (or (or P22 ?v_23) P14)) (or (or P25 P14) ?v_56)) (or (or P16 ?v_89) P2)) (or (or ?v_121 P14) ?v_109)) (or (or ?v_44 ?v_115) ?v_147)) (or (or ?v_135 ?v_121) P0)) (or (or P28 ?v_72) ?v_114)) (or (or ?v_139 P6) ?v_101)) (or (or ?v_17 ?v_82) ?v_129)) (or (or P11 ?v_97) ?v_62)) (or (or ?v_147 ?v_69) ?v_23)) (or (or ?v_20 ?v_148) ?v_136)) (or (or ?v_77 ?v_98) ?v_134)) (or (or ?v_121 P7) ?v_40)) (or (or ?v_49 ?v_106) ?v_148)) (or (or ?v_91 ?v_2) ?v_86)) (or (or P20 ?v_107) ?v_108)) (or (or ?v_137 ?v_59) ?v_92)) (or (or P8 ?v_86) P13)) (or (or ?v_9 ?v_62) ?v_120)) (or (or ?v_108 P19) ?v_84)) (or (or ?v_19 ?v_49) ?v_26)) (or (or ?v_35 ?v_50) ?v_108)) (or (or ?v_31 ?v_71) ?v_143)) (or (or ?v_26 ?v_31) ?v_129)) (or (or ?v_142 P20) ?v_149)) (or (or ?v_6 P11) ?v_78)) (or (or ?v_142 ?v_99) ?v_137)) (or (or ?v_87 ?v_150) ?v_119)) (or (or ?v_151 P27) ?v_119)) (or (or ?v_150 ?v_20) ?v_66)) (or (or ?v_56 ?v_152) ?v_153)) (or (or ?v_154 ?v_9) ?v_129)) (or (or ?v_145 ?v_22) ?v_153)) (or (or ?v_18 ?v_90) ?v_84)) (or (or ?v_57 ?v_134) ?v_19)) (or (or ?v_57 ?v_46) ?v_126)) (or (or ?v_71 ?v_61) ?v_57)) (or (or ?v_129 ?v_108) ?v_131)) (or (or ?v_53 ?v_126) ?v_16)) (or (or ?v_146 P11) ?v_36)) (or (or ?v_42 ?v_57) ?v_143)) (or (or P9 ?v_134) ?v_154)) (or (or ?v_13 P20) ?v_151)) (or (or P5 ?v_99) P26)) (or (or ?v_86 ?v_98) ?v_70)) (or (or P0 ?v_134) ?v_80)) (or (or ?v_75 ?v_16) ?v_55)) (or (or ?v_46 ?v_136) ?v_104)) (or (or ?v_141 ?v_144) ?v_66)) (or (or ?v_139 ?v_50) P29)) (or (or ?v_81 P29) ?v_99)) (or (or ?v_50 ?v_115) ?v_7)) (or (or ?v_148 ?v_140) ?v_78)) (or (or ?v_126 ?v_6) ?v_61)) (or (or ?v_132 ?v_11) ?v_104)) (or (or ?v_35 ?v_90) ?v_32)) (or (or ?v_107 ?v_12) ?v_17)) (or (or ?v_0 ?v_24) ?v_77)) (or (or ?v_137 P17) ?v_7)) (or (or ?v_9 ?v_59) P15)) (or (or ?v_147 P13) ?v_91)) (or (or ?v_26 ?v_13) P17)) (or (or ?v_44 ?v_121) ?v_130)) (or (or ?v_40 P26) ?v_89)) (or (or ?v_137 ?v_100) ?v_26)) (or (or ?v_48 ?v_68) ?v_67)) (or (or ?v_6 ?v_26) ?v_89)) (or (or ?v_126 ?v_2) ?v_21)) (or (or P13 ?v_78) ?v_115)) (or (or P4 ?v_66) P5)) (or (or ?v_5 ?v_8) ?v_6)) (or (or ?v_74 ?v_67) P4)) (or (or P15 ?v_40) ?v_136)) (or (or ?v_35 ?v_141) ?v_111)) (or (or ?v_54 ?v_51) P5)) (or (or ?v_54 ?v_57) ?v_46)) (or (or ?v_120 P18) P23)) (or (or ?v_33 ?v_118) ?v_90)) (or (or P8 ?v_16) ?v_1)) (or (or ?v_46 ?v_25) ?v_151)) (or (or ?v_78 ?v_104) ?v_141)) (or (or ?v_11 ?v_135) ?v_86)) (or (or ?v_10 ?v_108) ?v_141)) (or (or ?v_62 ?v_119) ?v_3)) (or (or ?v_72 ?v_33) ?v_76)) (or (or ?v_42 P25) P13)) (or (or ?v_143 P3) ?v_44)) (or (or ?v_99 ?v_114) ?v_41)) (or (or ?v_84 ?v_38) ?v_109)) (or (or P1 ?v_117) ?v_135)) (or (or ?v_112 ?v_18) ?v_67))))))))))))))))))))))))))))
(check-sat)
(exit)
